140524
105,7,96,54,28,29,4,51,64,30,12,87,39,55,19,15,63,89,16,20,21,61,24,44,71,81,50,99,98,18,67,49,46,60,102,34,74,62,31,6,52,83,32,1,72,47,84,35,38,36,48,17,69,70,53,94,66,40,10,103,37,104,100,2,93,77,95,59,3,14,90,78,42,43,65,58,9,26,27,86,0,57,75,23,101,73,13,25,33,82,56,79,88,92,11,22,91,8,41,80,85,45,76,5,68,97
